File : Instances/p68
Used 68s
22317

1 0 0 1 1 0 0 1 1 0 0 0 1 0 0 0 0 0 0 1 0 1 0 1 1 0 0 1 0 0 
7 19 21 27 21 12 21 27 27 27 4 19 8 3 19 7 3 8 27 0 27 21 21 24 23 27 27 0 4 21 19 19 4 21 27 12 8 8 24 21 7 8 12 4 8 19 3 21 19 19 24 24 24 21 8 12 7 8 27 7 4 0 7 8 3 12 0 19 19 12 7 12 19 8 23 23 8 0 8 24 23 0 8 7 4 23 19 0 27 7 27 19 7 7 0 3 27 12 0 19 0 21 12 7 4 0 4 24 27 3 19 4 27 12 12 8 27 7 0 8 8 7 0 19 4 21 21 12 19 0 27 24 12 8 23 8 3 3 0 23 12 27 12 12 7 23 24 21 27 7 24 0 23 0 8 27 21 21 3 3 3 27 23 24 23 27 23 4 3 21 3 8 19 8 4 21 0 8 4 8 21 21 21 19 12 8 12 23 0 21 21 21 19 4 7 12 7 21 23 19 
